%%%mzn-stat: initTime=0.012337122
%%%mzn-stat: objective=691
%%%mzn-stat: nodes=14053
%%%mzn-stat: restarts=3
%%%mzn-stat: peakDepth=767
%%%mzn-stat: solveTime=7.60970136
%%%mzn-stat: variables=1387
%%%mzn-stat: propagators=1058
%%%mzn-stat: failures=11431
%%%mzn-stat: propagations=464943
%%%mzn-stat: nogoods=11431
%%%mzn-stat: AverageConflictSize=36.75260257195346
%%%mzn-stat: NumUnitNogoodsLearned=187
%%%mzn-stat: AverageLearnedNogoodLength=63.42857142857143
%%%mzn-stat: AverageBacktrackAmount=0
%%%mzn-stat: AverageLbd=27.59723558743767
%%%mzn-stat-end
maxleg = 691;
succ = array1d(1..100,[82, 15, 32, 46, 95, 45, 47, 26, 85, 61, 28, 55, 35, 19, 74, 99, 97, 51, 41, 7, 68, 90, 27, 16, 76, 39, 80, 34, 10, 43, 84, 65, 64, 37, 25, 87, 20, 98, 58, 22, 69, 17, 14, 56, 40, 75, 31, 89, 3, 18, 38, 8, 30, 9, 11, 94, 73, 54, 29, 63, 50, 5, 96, 23, 42, 81, 59, 48, 36, 88, 53, 77, 6, 66, 44, 92, 24, 52, 2, 91, 60, 78, 70, 33, 79, 67, 83, 86, 49, 4, 93, 72, 71, 1, 21, 13, 100, 57, 62, 12]);
% time elapsed: 9.24 s
----------
%%%mzn-stat: initTime=0.012337122
%%%mzn-stat: objective=230
%%%mzn-stat: nodes=16135
%%%mzn-stat: restarts=4
%%%mzn-stat: peakDepth=798
%%%mzn-stat: solveTime=8.215901648
%%%mzn-stat: variables=1387
%%%mzn-stat: propagators=1058
%%%mzn-stat: failures=12381
%%%mzn-stat: propagations=498891
%%%mzn-stat: nogoods=12381
%%%mzn-stat: AverageConflictSize=37.35336402552298
%%%mzn-stat: NumUnitNogoodsLearned=187
%%%mzn-stat: AverageLearnedNogoodLength=63.77182780066231
%%%mzn-stat: AverageBacktrackAmount=0
%%%mzn-stat: AverageLbd=27.617639932154106
%%%mzn-stat-end
maxleg = 230;
succ = array1d(1..100,[82, 15, 32, 46, 95, 45, 47, 26, 85, 61, 28, 55, 35, 19, 74, 99, 97, 51, 41, 7, 68, 90, 31, 16, 76, 78, 80, 34, 10, 43, 37, 65, 84, 64, 25, 48, 27, 98, 58, 22, 87, 17, 14, 56, 40, 75, 33, 89, 3, 18, 38, 8, 30, 9, 11, 94, 73, 54, 29, 63, 50, 5, 39, 20, 83, 60, 59, 77, 36, 88, 53, 42, 6, 66, 79, 92, 71, 44, 2, 91, 96, 13, 70, 23, 81, 67, 69, 86, 49, 4, 93, 72, 24, 1, 21, 52, 100, 57, 62, 12]);
% time elapsed: 9.84 s
----------
%%%mzn-stat: initTime=0.012337122
%%%mzn-stat: objective=188
%%%mzn-stat: nodes=16828
%%%mzn-stat: restarts=4
%%%mzn-stat: peakDepth=798
%%%mzn-stat: solveTime=8.236683694
%%%mzn-stat: variables=1387
%%%mzn-stat: propagators=1058
%%%mzn-stat: failures=12382
%%%mzn-stat: propagations=501002
%%%mzn-stat: nogoods=12382
%%%mzn-stat: AverageConflictSize=37.35454692295267
%%%mzn-stat: NumUnitNogoodsLearned=187
%%%mzn-stat: AverageLearnedNogoodLength=63.771038604425776
%%%mzn-stat: AverageBacktrackAmount=0
%%%mzn-stat: AverageLbd=27.617347762881604
%%%mzn-stat-end
maxleg = 188;
succ = array1d(1..100,[82, 15, 32, 46, 95, 45, 47, 44, 85, 50, 28, 55, 35, 19, 74, 99, 97, 51, 41, 37, 68, 90, 27, 16, 76, 13, 80, 91, 61, 43, 56, 65, 84, 23, 20, 48, 64, 98, 58, 22, 87, 17, 14, 94, 40, 75, 33, 89, 3, 18, 38, 8, 30, 9, 11, 7, 73, 54, 70, 63, 10, 5, 39, 31, 88, 60, 59, 77, 36, 83, 53, 42, 6, 66, 79, 92, 71, 26, 2, 25, 96, 78, 29, 34, 81, 67, 69, 86, 49, 4, 93, 72, 24, 1, 21, 52, 100, 57, 62, 12]);
% time elapsed: 9.86 s
----------
==========
% time elapsed: 9.86 s
%%%mzn-stat: initTime=0.012337122
%%%mzn-stat: objective=188
%%%mzn-stat: nodes=16828
%%%mzn-stat: restarts=4
%%%mzn-stat: peakDepth=798
%%%mzn-stat: solveTime=8.236688303
%%%mzn-stat: variables=1387
%%%mzn-stat: propagators=1058
%%%mzn-stat: failures=12382
%%%mzn-stat: propagations=501002
%%%mzn-stat: nogoods=12382
%%%mzn-stat: AverageConflictSize=37.35454692295267
%%%mzn-stat: NumUnitNogoodsLearned=187
%%%mzn-stat: AverageLearnedNogoodLength=63.771038604425776
%%%mzn-stat: AverageBacktrackAmount=0
%%%mzn-stat: AverageLbd=27.617347762881604
%%%mzn-stat-end
